19 20
5 9 1
1 4 1
8 2 1
4 9 1
1 2 1
4 6 1
4 4 1
1 6 1
1 5 1
4 5 1
2 6 1
9 10 1
5 2 2
3 1 1
7 10 1
7 4 1
6 6 1
9 2 1
7 8 1
10 10 
10 10 
10 10 
10 10 
10 10 
10 10 
10 10 
10 10 
10 10 
10 10 
10 10 
10 10 
10 10 
10 10 
10 10 
10 10 
10 10 
10 10 
10 10 
10 10 
